(set-info :smt-lib-version 2.6)
(set-logic QF_BV)
(set-info :source |
 Patrice Godefroid, SAGE (systematic dynamic test generation)
 For more information: http://research.microsoft.com/en-us/um/people/pg/public_psfiles/ndss2008.pdf
|)
(set-info :category "industrial")
(set-info :status sat)
(declare-fun T1_10311 () (_ BitVec 8))
(declare-fun T1_10310 () (_ BitVec 8))
(declare-fun T1_10309 () (_ BitVec 8))
(declare-fun T1_10308 () (_ BitVec 8))
(declare-fun T1_10307 () (_ BitVec 8))
(declare-fun T1_10306 () (_ BitVec 8))
(declare-fun T1_10305 () (_ BitVec 8))
(declare-fun T1_10304 () (_ BitVec 8))
(declare-fun T1_10303 () (_ BitVec 8))
(declare-fun T1_10302 () (_ BitVec 8))
(declare-fun T1_10301 () (_ BitVec 8))
(declare-fun T1_10300 () (_ BitVec 8))
(declare-fun T1_10299 () (_ BitVec 8))
(declare-fun T1_10298 () (_ BitVec 8))
(declare-fun T1_10297 () (_ BitVec 8))
(declare-fun T1_10296 () (_ BitVec 8))
(declare-fun T1_10295 () (_ BitVec 8))
(declare-fun T1_10294 () (_ BitVec 8))
(declare-fun T1_10293 () (_ BitVec 8))
(declare-fun T1_10292 () (_ BitVec 8))
(declare-fun T1_10291 () (_ BitVec 8))
(declare-fun T1_10290 () (_ BitVec 8))
(declare-fun T1_10289 () (_ BitVec 8))
(declare-fun T1_10288 () (_ BitVec 8))
(declare-fun T1_10287 () (_ BitVec 8))
(declare-fun T1_10286 () (_ BitVec 8))
(declare-fun T1_10285 () (_ BitVec 8))
(declare-fun T1_10284 () (_ BitVec 8))
(declare-fun T1_10283 () (_ BitVec 8))
(declare-fun T1_10282 () (_ BitVec 8))
(declare-fun T1_10281 () (_ BitVec 8))
(declare-fun T1_10280 () (_ BitVec 8))
(declare-fun T1_10279 () (_ BitVec 8))
(declare-fun T1_10278 () (_ BitVec 8))
(declare-fun T1_10277 () (_ BitVec 8))
(declare-fun T1_10276 () (_ BitVec 8))
(declare-fun T1_10275 () (_ BitVec 8))
(assert (let ((?v_7 ((_ zero_extend 24) (_ bv8 8))) (?v_0 ((_ zero_extend 24) (_ bv4 8))) (?v_1 ((_ zero_extend 24) (_ bv5 8))) (?v_6 ((_ zero_extend 24) (_ bv1 8))) (?v_2 ((_ zero_extend 24) (_ bv7 8))) (?v_3 ((_ zero_extend 24) (_ bv3 8))) (?v_5 ((_ zero_extend 24) (_ bv2 8))) (?v_4 ((_ zero_extend 24) (_ bv6 8)))) (and true (bvslt (_ bv4294967295 32) (bvadd (bvashr (bvadd (bvashr (bvashr (bvadd (bvashr (bvadd (bvashr (bvashr (bvadd (bvashr (bvashr (bvadd (bvashr (bvadd (bvashr (bvadd (bvashr (bvashr (bvadd (bvashr (bvadd (bvashr (bvadd (bvashr (bvadd (bvashr (bvashr (bvadd (bvashr (bvashr (bvadd (bvashr (bvadd (bvashr (bvashr (bvadd (bvashr (bvashr (bvadd (bvashr (bvashr (bvadd (bvashr (bvadd (bvashr (bvadd (bvashr (bvashr (bvadd (bvashr (bvadd (bvashr (bvashr (bvadd (bvashr (bvadd (bvashr (bvashr (bvashr (bvadd (bvashr (bvadd (bvashr (bvashr (bvadd (bvashr (bvadd (bvashr (bvashr (bvadd (bvashr (bvadd (bvashr (bvashr (bvadd (bvashr (bvashr (bvadd (bvashr (bvadd (bvashr (bvashr (bvadd (bvashr (bvadd (bvashr (bvashr (bvadd (bvashr ((_ zero_extend 24) T1_10275) ?v_0) (bvshl ((_ zero_extend 24) T1_10276) ?v_0)) ?v_2) ?v_1) ((_ zero_extend 24) T1_10277)) ?v_1) (bvshl ((_ zero_extend 24) T1_10278) ?v_3)) ?v_1) ?v_0) (bvshl ((_ zero_extend 24) T1_10279) ?v_5)) ?v_2) (bvshl ((_ zero_extend 24) T1_10280) ?v_3)) ?v_0) ?v_0) (bvshl ((_ zero_extend 24) T1_10281) ?v_3)) ?v_4) ?v_1) ((_ zero_extend 24) T1_10282)) ?v_4) (bvshl ((_ zero_extend 24) T1_10283) ?v_5)) ?v_1) ?v_1) ((_ zero_extend 24) T1_10284)) ?v_1) (bvshl ((_ zero_extend 24) T1_10285) ?v_3)) ?v_0) ?v_0) (bvshl ((_ zero_extend 24) T1_10286) ?v_3)) ?v_1) (bvshl ((_ zero_extend 24) T1_10287) ?v_4)) ?v_2) ?v_3) ?v_3) (bvshl ((_ zero_extend 24) T1_10288) ?v_6)) ?v_0) (bvshl ((_ zero_extend 24) T1_10289) ?v_1)) ?v_2) ?v_1) (bvshl ((_ zero_extend 24) T1_10290) ?v_6)) ?v_4) (bvshl ((_ zero_extend 24) T1_10291) ?v_3)) ?v_1) ?v_1) (bvshl ((_ zero_extend 24) T1_10292) ?v_6)) ?v_1) (bvshl ((_ zero_extend 24) T1_10293) ?v_0)) ?v_2) (bvshl ((_ zero_extend 24) T1_10294) ?v_1)) ?v_2) ?v_3) (bvshl ((_ zero_extend 24) T1_10295) ?v_3)) ?v_4) ?v_0) (bvshl ((_ zero_extend 24) T1_10296) ?v_6)) ?v_3) ?v_4) ((_ zero_extend 24) T1_10297)) ?v_2) (bvshl ((_ zero_extend 24) T1_10298) ?v_6)) ?v_3) ?v_3) (bvshl ((_ zero_extend 24) T1_10299) ?v_3)) ?v_1) ?v_1) (bvshl ((_ zero_extend 24) T1_10300) ?v_6)) ?v_1) (bvshl ((_ zero_extend 24) T1_10301) ?v_0)) ?v_7) (bvshl ((_ zero_extend 24) T1_10302) ?v_0)) ?v_1) (bvshl ((_ zero_extend 24) T1_10303) ?v_2)) ?v_7) ?v_1) (bvshl ((_ zero_extend 24) T1_10304) ?v_5)) ?v_4) (bvshl ((_ zero_extend 24) T1_10305) ?v_0)) ?v_1) (bvshl ((_ zero_extend 24) T1_10306) ?v_2)) ?v_7) ?v_1) (bvshl ((_ zero_extend 24) T1_10307) ?v_5)) ?v_3) ?v_2) ((_ zero_extend 24) T1_10308)) ?v_2) (bvshl ((_ zero_extend 24) T1_10309) ?v_6)) ?v_1) ?v_0) ((_ zero_extend 24) T1_10310)) ?v_7) ((_ zero_extend 24) T1_10311))))))
(check-sat)
(exit)
